c --- [ banner ] -------------------------------------------------------------
c 
c CaDiCaL Radically Simplified CDCL SAT Solver
c Copyright (c) 2016-2021 A. Biere, M. Fleury, N. Froleyks
c 
c Version 1.5.2 a5f15211db36c3956764e18194dd5bd63bf3b5e6
c g++ (GCC) 9.3.0 -Wall -Wextra -O3 -DNDEBUG
c Fri Oct 21 01:27:37 EDT 2022 Linux gra-login3 3.10.0-1160.66.1.el7.x86_64 x86_64
c 
c --- [ limit ] --------------------------------------------------------------
c 
c setting conflict limit to 200000 conflicts (due to '200000')
c 
c --- [ parsing input ] ------------------------------------------------------
c 
c reading DIMACS file from '33.cubes5008.adj'
c opening file to read '33.cubes5008.adj'
c found 'p cnf 6160 1595481' header
c parsed 1595481 clauses in 19.41 seconds process time
c closing file '33.cubes5008.adj'
c after reading 1457566818 bytes 1390.0 MB
c 
c --- [ options ] ------------------------------------------------------------
c 
c all options are set to their default value
c 
c --- [ solving ] ------------------------------------------------------------
c 
c time measured in process time since initialization
c 
c  seconds    reductions  redundant   irredundant
c          MB     restarts       trail       variables
c            level   conflicts       glue         remaining
c 
c * 19.41 1384  0 0   0    0    0  0% 0 1595422 2304 37%
c { 20.72 1441  0 0   0    0    0  0% 0 1595422 2304 37%
c i 23.10 1494 370 0   3   84   57 27% 6 1595422 2303 37%
c i 24.63 1512 293 0  11  111   81 27% 22 1595422 2292 37%
c i 25.39 1517 205 0  24  172  132 27% 29 1595422 2290 37%
c - 29.52 1475 127 1  28  303  245 29% 26 233957 2290 37%
c i 29.86 1437 99 1  28  420  330 29% 25 233957 2289 37%
c i 29.91 1375 94 1  28  450  355 29% 24 233957 2288 37%
c } 30.45 1375 60 1  38 1000  771 29% 22 233957 2288 37%
c [ 30.45 1375  0 1  38 1000  771  0% 0 233957 2288 37%
c O 30.46 1375 29 1  38 1002  773 18% 1 233957 2288 37%
c - 31.09 1472  7 2  38 1124  678 19% 6 233952 2288 37%
c i 31.36 1472 13 2  38 1402  815 23% 12 233952 2287 37%
c i 31.39 1472 15 2  38 1434  843 24% 13 233952 2286 37%
c i 31.42 1472 16 2  38 1507  900 25% 14 233952 2285 37%
c i 31.45 1472 17 2  38 1561  941 25% 15 233952 2284 37%
c i 31.49 1472 17 2  38 1595  965 26% 15 233952 2283 37%
c i 31.56 1472 18 2  38 1635  993 26% 15 233952 2282 37%
c i 31.72 1472 19 2  38 1777 1093 27% 16 233952 2281 37%
c i 31.74 1472 19 2  38 1789 1104 27% 16 233952 2280 37%
c 
c  seconds    reductions  redundant   irredundant
c          MB     restarts       trail       variables
c            level   conflicts       glue         remaining
c 
c i 31.75 1472 19 2  38 1802 1109 27% 16 233952 2279 37%
c i 31.77 1472 19 2  38 1842 1140 27% 17 233952 2278 37%
c i 31.79 1472 20 2  38 1879 1164 27% 17 233952 2277 37%
c i 31.79 1472 20 2  38 1881 1164 27% 17 233952 2276 37%
c i 31.80 1472 20 2  38 1900 1178 27% 17 233952 2275 37%
c i 31.81 1472 20 2  38 1928 1195 27% 17 233952 2274 37%
c i 31.83 1472 20 2  38 1945 1208 27% 17 233952 2273 37%
c i 31.83 1472 20 2  38 1947 1209 27% 17 233952 2272 37%
c i 31.86 1472 20 2  38 1980 1237 27% 17 233952 2271 37%
c i 31.89 1472 20 2  38 2021 1270 28% 17 233952 2270 37%
c i 31.98 1472 20 2  39 2189 1376 28% 18 233952 2269 37%
c i 32.00 1472 20 2  39 2236 1406 28% 18 233952 2268 37%
c - 32.39 1469 20 3  39 2358 1133 29% 17 233893 2268 37%
c i 33.12 1432 22 3  39 2774 1422 49% 19 233893 2267 37%
c i 33.33 1432 23 3  39 2904 1510 49% 19 233893 2266 37%
c i 33.34 1432 23 3  39 2916 1518 49% 19 233893 2265 37%
c i 33.36 1432 23 3  39 2946 1538 49% 19 233893 2264 37%
c i 33.37 1432 23 3  39 2951 1542 49% 19 233893 2263 37%
c i 33.39 1432 23 3  39 2975 1558 49% 20 233893 2262 37%
c ] 33.41 1432 23 3  39 3000 1570 49% 20 233893 2262 37%
c 
c  seconds    reductions  redundant   irredundant
c          MB     restarts       trail       variables
c            level   conflicts       glue         remaining
c 
c { 33.41 1432 60 3  39 3000 1570 79% 22 233893 2262 37%
c F 33.43 1432 60 3  39 3005 1573 79% 22 233893 2262 37%
c i 33.43 1432 60 3  39 3005 1573 79% 22 233893 2261 37%
c i 33.69 1432 59 3  40 3054 1619 77% 22 233893 2260 37%
c i 34.09 1432 59 3  52 3152 1705 74% 22 233893 2259 37%
c i 34.12 1432 59 3  54 3157 1709 74% 23 233893 2258 37%
c i 34.12 1432 59 3  54 3158 1709 74% 22 233893 2257 37%
c i 34.17 1432 59 3  56 3170 1716 74% 22 233893 2256 37%
c i 34.35 1432 58 3  59 3250 1779 72% 22 233893 2255 37%
c i 34.39 1432 57 3  59 3301 1812 71% 22 233893 2254 37%
c i 34.45 1432 56 3  59 3342 1846 70% 22 233893 2253 37%
c i 34.46 1432 56 3  59 3363 1862 70% 22 233893 2252 37%
c i 34.51 1432 53 3  59 3497 1959 67% 21 233893 2251 37%
c i 34.53 1432 53 3  59 3517 1969 67% 21 233893 2250 37%
c i 34.54 1432 53 3  59 3526 1977 67% 21 233893 2249 37%
c i 34.66 1432 53 3  64 3566 2013 66% 21 233893 2248 36%
c - 36.85 1340 52 4 125 4002 1609 59% 22 233837 2248 36%
c i 37.47 1340 50 4 143 4239 1698 56% 22 233837 2247 36%
c i 37.97 1340 50 4 169 4336 1787 55% 22 233837 2246 36%
c i 37.98 1340 50 4 169 4337 1787 55% 22 233837 2245 36%
c 
c  seconds    reductions  redundant   irredundant
c          MB     restarts       trail       variables
c            level   conflicts       glue         remaining
c 
c i 38.50 1340 49 4 181 4605 1996 55% 22 233837 2244 36%
c i 39.07 1340 46 4 188 4972 2269 53% 22 233837 2243 36%
c d 39.42 1340 46 4 188 5000 2287 53% 22 233795 2234 36%
c 2 39.48 1340 46 4 188 5000 3221 53% 22 233788 2234 36%
c p 43.41 1340 46 4 188 5000 5553 53% 22 233788 2189 36%
c d 43.76 1340 46 4 188 5000 5380 53% 22 233022 2187 36%
c # 44.63 1340 40 4 188 6006 6058 51% 21 233022 2187 36%
c - 44.97 1341 40 5 188 6055 2225 51% 21 233022 2187 36%
c } 48.32 1341 41 5 347 7000 2807 48% 22 233022 2187 36%
c [ 48.32 1341 23 5 347 7000 2807 49% 20 233022 2187 36%
c - 49.00 1341 33 6 348 8518 2789 49% 27 233022 2187 36%
c I 49.52 1341 37 6 349 10007 3838 48% 31 233022 2187 36%
c - 51.14 1341 47 7 351 11392 3506 48% 38 233022 2187 36%
c - 53.65 1341 55 8 352 14673 4033 48% 44 233022 2187 36%
c ] 53.98 1341 55 8 352 15002 4261 48% 45 233022 2187 36%
c { 53.98 1341 41 8 352 15002 4261 48% 22 233022 2187 36%
c p 55.17 1341 41 8 353 15002 7618 48% 22 233022 2187 36%
c B 55.30 1341 41 8 354 15008 7624 48% 22 233022 2187 36%
c - 61.62 1342 40 9 605 18364 4812 48% 23 233022 2187 36%
c } 61.66 1342 39 9 605 18520 4917 49% 23 233022 2187 36%
c 
c  seconds    reductions   redundant   irredundant
c          MB     restarts        trail       variables
c            level    conflicts       glue         remaining
c 
c 1 61.66 1342 39 9 605 18520 4917 49% 23 233022 2187 36%
c 
c --- [ writing output ] -----------------------------------------------------
c 
c writing simplified CNF to DIMACS file 'simp/33.cubes5008.adj.simp1'
c * 61.66 1342 39 9 605 18520 4917 49% 23 233022 2187 36%
c opening file to write 'simp/33.cubes5008.adj.simp1'
c writing 'p cnf 6160 233022' header
c closing file 'simp/33.cubes5008.adj.simp1'
c after writing 96794038 bytes 92.3 MB
c wrote 233022 clauses in 0.70 seconds process time
c 
c --- [ writing extension ] --------------------------------------------------
c 
c writing extension stack to 'simp/33.cubes5008.adj.ext1'
c opening file to write 'simp/33.cubes5008.adj.ext1'
c closing file 'simp/33.cubes5008.adj.ext1'
c after writing 12605 bytes 0.0 MB
c wrote 840 witnesses in 0.00 seconds process time
c 
c --- [ result ] -------------------------------------------------------------
c 
s SATISFIABLE
c 
c --- [ run-time profiling ] -------------------------------------------------
c 
c process time taken by individual solving procedures
c (percentage relative to process time for solving)
c 
c        36.35   86.05% search
c        26.42   62.55% unstable
c        19.41   45.95% parse
c         8.62   20.41% stable
c         5.89   13.95% simplify
c         5.06   11.99% probe
c         1.31    3.09% lucky
c         0.07    0.18% ternary
c   =================================
c        42.25   67.75% solve
c 
c last line shows process time for solving
c (percentage relative to total process time)
c 
c --- [ statistics ] ---------------------------------------------------------
c 
c chronological:              3757        20.29 %  of conflicts
c conflicts:                 18520       438.39    per second
c decisions:                 65873      1559.30    per second
c fixed:                       818        13.28 %  of all variables
c learned:                   18111        97.79 %  per conflict
c learned_lits:            3211145       100.00 %  learned literals
c minimized:                     0         0.00 %  learned literals
c shrunken:                1812626        56.45 %  learned literals
c minishrunken:             239454         7.46 %  learned literals
c propagations:            2542217         0.06 M  per second
c reduced:                    8514        45.97 %  per conflict
c rephased:                      5      3704.00    interval
c restarts:                    605        30.61    interval
c stabilizing:                   2        54.01 %  of conflicts
c substituted:                  11         0.18 %  of all variables
c subsumed:                   4886         0.15 %  of all clauses
c ternary:                    1877         0.56 %  of resolved
c weakened:                     22         2.00    average size
c 
c seconds are measured in process time for solving
c 
c --- [ resources ] ----------------------------------------------------------
c 
c total process time since initialization:        62.36    seconds
c total real time since initialization:           64.52    seconds
c maximum resident set size of process:         1566.50    MB
c 
c --- [ shutting down ] ------------------------------------------------------
c 
c exit 10
WARNING! DIMACS header mismatch: wrong number of variables.
============================[ Problem Statistics ]=============================
|                                                                             |
|  Number of variables:          6120                                         |
|  Number of clauses:          233022                                         |
|  Parse time:                   1.30 s                                       |
|  Simplification time:          0.02 s                                       |
|                                                                             |
============================[ Search Statistics ]====================================================
| Conflicts |          ORIGINAL         |          LEARNT          | Num Sols |      SUBGRAPHS      |
|           |    Vars  Clauses Literals |    Limit  Clauses Lit/Cl |          | Canonical Noncanon. |
=====================================================================================================
|       123 |    6026   233045 21191614 |     2000      123    104 |        0 |        30        23 |
|       274 |    6026   233046 21191631 |     2000      274    105 |        0 |        31        24 |
|       501 |    6026   233048 21191743 |     2000      501     97 |        0 |        42        26 |
|       877 |    6026   233087 21192517 |     2000      877     99 |        0 |        56        65 |
|      1529 |    6026   233233 21195453 |     2000     1529     95 |        0 |        71       211 |
|      2337 |    6026   233282 21196289 |     3604     1341     61 |        0 |       113       260 |
|      4174 |    6026   233980 21208314 |     3604     3178     67 |        0 |       221       958 |
|      5914 |    6026   234012 21209050 |     5007     3121     62 |        0 |       240       990 |
|      8509 |    6026   234045 21210127 |     6302     3211     56 |        0 |       247      1023 |
|     12588 |    6026   234280 21215160 |     7552     4140     45 |        0 |       272      1258 |
|     18457 |    6026   234383 21217229 |     8777     6234     58 |        0 |       302      1361 |
|     27731 |    6026   235008 21230649 |    11202     6133     43 |        0 |       479      1986 |
|     42002 |    6026   236305 21257145 |    13608     8610     55 |        0 |       990      3283 |
|     62585 |    6026   237427 21278114 |    16009    14994     70 |        0 |      1348      4405 |
|     94083 |    6026   239733 21318323 |    20821    10904     38 |        0 |      2120      6711 |
|    139928 |    6026   241789 21357538 |    24410    23738     78 |        0 |      2740      8767 |
|    207449 |    6026   243626 21389224 |    30422    24271     67 |        0 |      3230     10604 |
|    312896 |    6026   250547 21520861 |    37609    29505     72 |        1 |      4500     17524 |
|    462450 |    6026   252312 21550948 |    46010    34860     72 |        1 |      4986     19289 |
|    685727 |    6026   253906 21583492 |    56811    29538     49 |        1 |      5563     20883 |
|   1023790 |    6026   259444 21692475 |    68817    56607     72 |        1 |      6650     26421 |
|   1526034 |    6026   262900 21771383 |    84421    64855     69 |        2 |      7440     29876 |
|   2281650 |    6026   270334 21937504 |   103630    73280     68 |        2 |      9550     37310 |
|   3438770 |    6026   305180 22681891 |   127621    80391     57 |        2 |     15784     72156 |
|   5148977 |    6026   331976 23285883 |   156419    93796     54 |        2 |     26187     98952 |
|   7729782 |    6026   387665 24457844 |   191223   163205     70 |        2 |     39264    154641 |
|  11557568 |    6026   427776 25428359 |   234415   171383     58 |        2 |     51710    194752 |
|  17349480 |    5921   343619 19930980 |   265230   216910     67 |        2 |     83684    305152 |
=====================================================================================================
Number of solutions   : 2
Canonical subgraphs   : 85927          (19 /sec)
          order  3    : 1              (125000 /sec)
          order  4    : 1              (500000 /sec)
          order  5    : 1              (250000 /sec)
          order  6    : 1              (58824 /sec)
          order  7    : 1              (8929 /sec)
          order  8    : 2              (1367 /sec)
          order  9    : 7              (353 /sec)
          order 10    : 36             (122 /sec)
          order 11    : 254            (54 /sec)
          order 12    : 1254           (16 /sec)
          order 13    : 5819           (7 /sec)
          order 14    : 27078          (19 /sec)
          order 15    : 34783          (24 /sec)
          order 16    : 11364          (24 /sec)
          order 17    : 3793           (18 /sec)
          order 18    : 752            (13 /sec)
          order 19    : 350            (13 /sec)
          order 20    : 206            (15 /sec)
          order 21    : 222            (15 /sec)
          order 22    : 2              (1 /sec)
Noncanonical subgraphs: 313670         (376 /sec)
          order  3    : 0              (-nan /sec)
          order  4    : 0              (-nan /sec)
          order  5    : 0              (-nan /sec)
          order  6    : 0              (-nan /sec)
          order  7    : 0              (-nan /sec)
          order  8    : 0              (-nan /sec)
          order  9    : 0              (-nan /sec)
          order 10    : 0              (-nan /sec)
          order 11    : 0              (-nan /sec)
          order 12    : 0              (-nan /sec)
          order 13    : 28267          (3138 /sec)
          order 14    : 147115         (1094 /sec)
          order 15    : 45096          (1207 /sec)
          order 16    : 86177          (156 /sec)
          order 17    : 5680           (95 /sec)
          order 18    : 1083           (46 /sec)
          order 19    : 0              (-nan /sec)
          order 20    : 0              (-nan /sec)
          order 21    : 0              (-nan /sec)
Canonicity checking   : 4575.78 s
Noncanonicity checking: 835.292 s
Total canonicity time : 5411.07 s
database reductions   : 239
restarts              : 26171
conflicts             : 17581220       (1204 /sec)
decisions             : 21501553       (0.00 % random) (1472 /sec)
propagations          : 1933707315     (132376 /sec)
conflict literals     : 1962281793     (55.07 % deleted)
actual reward         : 0.108551
Memory used           : 431.00 MB
CPU time              : 14607.7 s

UNSATISFIABLE
